109729
0,36,64,49,3,62,38,51,40,77,68,24,14,60,5,78,29,34,27,7,82,52,58,67,43,21,81,74,39,10,15,37,1,41,54,22,11,2,42,56,33,48,46,59,80,71,50,26,32,6,55,16,57,73,31,20,4,18,30,23,47,17,12,45,53,70,8,76,19,65,35,25,75,66,13,69,61,79,44,72,63,28,9,0